Route #1: 20 2 63 42 39 57
Route #2: 47 61 18 50 10
Route #3: 52 43 49 62
Route #4: 9 35 59 4 14 51 55 22 5 24
Route #5: 33 29 11 28 56 13 16
Route #6: 12 60 36 48 15 19 3 32
Route #7: 8 21 27 34 40 38 17
Route #8: 26 1 23 25
Route #9: 31 54 41 46 30 7
Route #10: 37 44 45 6 53 58
Cost 922.1395836448739